NAME: VRP
TYPE: TSP
COMMENT: NA
DIMENSION: 10
EDGE_WEIGHT_TYPE : EUC
ARISTAS: 34
NODE_COORD_SECTION
1	2	8	1
1	5	6	1
2	10	7	1
2	1	4	1
2	3	2	2
2	6	6	3
3	10	10	4
3	7	11	5
3	2	12	6
3	4	4	7
3	5	3	8
4	9	10	1
4	3	1	2
4	7	20	3
4	8	21	4
5	1	4	5
5	3	7	6
5	6	9	1
6	2	12	2
6	5	14	3
6	7	15	4
7	6	4	5
7	3	17	6
7	9	8	7
7	4	16	2
7	8	9	1
8	7	10	2
8	4	2	1
9	10	3	2
9	7	19	3
9	4	4	7
10	9	18	8
10	3	6	2
10	2	14	9
